p cnf 128 456
4 -2 0
4 3 0
2 -3 -4 0
5 1 0
5 -4 0
-1 4 -5 0
7 -2 0
7 1 0
2 -1 -7 0
9 7 0
9 -8 0
-7 8 -9 0
-10 6 0
-10 -9 0
-6 9 10 0
-11 -5 0
-11 -10 0
5 10 11 0
12 4 0
12 6 0
-4 -6 -12 0
13 -1 0
13 -12 0
1 12 -13 0
-14 -11 0
-14 13 0
11 -13 14 0
16 15 0
16 -4 0
-15 4 -16 0
-1 -17 -18 0
1 17 -18 0
-1 17 18 0
1 -17 18 0
-19 16 0
-19 -18 0
-16 18 19 0
-14 -19 -20 0
14 19 -20 0
-14 19 20 0
14 -19 20 0
-22 -21 0
-22 -1 0
21 1 22 0
4 22 -23 0
-4 -22 -23 0
4 -22 23 0
-4 22 23 0
24 -20 0
24 -23 0
20 23 -24 0
27 -25 0
27 -26 0
25 26 -27 0
-18 28 0
18 28 0
-27 -28 -29 0
27 28 -29 0
-27 28 29 0
27 -28 29 0
-30 -17 0
-30 27 0
17 -27 30 0
31 -30 0
31 -27 0
30 27 -31 0
-32 -29 0
-32 31 0
29 -31 32 0
-33 -32 0
-33 -1 0
32 1 33 0
34 3 0
34 2 0
-3 -2 -34 0
-34 -7 -35 0
34 7 -35 0
-34 7 35 0
34 -7 35 0
36 -33 0
36 -35 0
33 35 -36 0
37 -24 0
37 36 0
24 -36 -37 0
38 21 0
38 -8 0
-21 8 -38 0
40 -39 0
40 -16 0
39 16 -40 0
-41 -38 0
-41 -40 0
38 40 41 0
-42 -2 0
-42 -41 0
2 41 42 0
8 25 -43 0
-8 -25 -43 0
8 -25 43 0
-8 25 43 0
-45 -43 0
-45 44 0
43 -44 45 0
45 -46 -47 0
-45 46 -47 0
45 46 47 0
-45 -46 47 0
-48 -42 0
-48 -47 0
42 47 48 0
-49 -17 0
-49 -27 0
17 27 49 0
-49 -13 -50 0
49 13 -50 0
-49 13 50 0
49 -13 50 0
-50 -13 -51 0
50 13 -51 0
-50 13 51 0
50 -13 51 0
-48 51 -52 0
48 -51 -52 0
-48 -51 52 0
48 51 52 0
-53 30 0
-53 2 0
-30 -2 53 0
43 -26 -54 0
-43 26 -54 0
43 26 54 0
-43 -26 54 0
-55 -53 0
-55 54 0
53 -54 55 0
56 -1 0
56 41 0
1 -41 -56 0
-26 56 -57 0
26 -56 -57 0
-26 -56 57 0
26 56 57 0
-55 57 -58 0
55 -57 -58 0
-55 -57 58 0
55 57 58 0
-59 -27 0
-59 15 0
27 -15 59 0
21 -59 -60 0
-21 59 -60 0
21 59 60 0
-21 -59 60 0
61 -29 0
61 -60 0
29 60 -61 0
62 -40 0
62 -3 0
40 3 -62 0
-12 10 -63 0
12 -10 -63 0
-12 -10 63 0
12 10 63 0
64 -62 0
64 -63 0
62 63 -64 0
65 43 0
65 -64 0
-43 64 -65 0
66 61 0
66 -65 0
-61 65 -66 0
67 -58 0
67 66 0
58 -66 -67 0
68 -52 0
68 -67 0
52 67 -68 0
-69 37 0
-69 68 0
-37 -68 69 0
70 6 0
70 -10 0
-6 10 -70 0
-71 38 0
-71 -1 0
-38 1 71 0
72 -70 0
72 71 0
70 -71 -72 0
-73 -60 0
-73 25 0
60 -25 73 0
-73 19 -74 0
73 -19 -74 0
-73 -19 74 0
73 19 74 0
-75 -72 0
-75 -74 0
72 74 75 0
-69 -75 -76 0
69 75 -76 0
-69 75 76 0
69 -75 76 0
-27 -77 -78 0
27 77 -78 0
-27 77 78 0
27 -77 78 0
1 -27 -79 0
-1 27 -79 0
1 27 79 0
-1 -27 79 0
80 -17 0
80 -43 0
17 43 -80 0
81 79 0
81 -80 0
-79 80 -81 0
-82 6 0
-82 -1 0
-6 1 82 0
83 82 0
83 -4 0
-82 4 -83 0
-84 6 0
-84 -83 0
-6 83 84 0
85 -81 0
85 84 0
81 -84 -85 0
-86 8 0
-86 -15 0
-8 15 86 0
87 86 0
87 9 0
-86 -9 -87 0
-88 87 0
-88 59 0
-87 -59 88 0
89 -85 0
89 -88 0
85 88 -89 0
90 -86 0
90 -13 0
86 13 -90 0
91 2 0
91 -80 0
-2 80 -91 0
-80 91 -92 0
80 -91 -92 0
-80 -91 92 0
80 91 92 0
93 9 0
93 92 0
-9 -92 -93 0
-90 -93 -94 0
90 93 -94 0
-90 93 94 0
90 -93 94 0
95 89 0
95 94 0
-89 -94 -95 0
-96 -28 0
-96 15 0
28 -15 96 0
97 21 0
97 34 0
-21 -34 -97 0
25 -63 -98 0
-25 63 -98 0
25 63 98 0
-25 -63 98 0
-99 97 0
-99 98 0
-97 -98 99 0
-100 -44 0
-100 3 0
44 -3 100 0
15 -100 -101 0
-15 100 -101 0
15 100 101 0
-15 -100 101 0
-102 38 0
-102 -101 0
-38 101 102 0
-99 102 -103 0
99 -102 -103 0
-99 -102 103 0
99 102 103 0
-104 96 0
-104 -103 0
-96 103 104 0
-28 22 -105 0
28 -22 -105 0
-28 -22 105 0
28 22 105 0
-21 105 -106 0
21 -105 -106 0
-21 -105 106 0
21 105 106 0
107 -1 0
107 -106 0
1 106 -107 0
107 -9 -108 0
-107 9 -108 0
107 9 108 0
-107 -9 108 0
104 -108 -109 0
-104 108 -109 0
104 108 109 0
-104 -108 109 0
110 3 0
110 29 0
-3 -29 -110 0
109 -110 -111 0
-109 110 -111 0
109 110 111 0
-109 -110 111 0
-112 -95 0
-112 111 0
95 -111 112 0
-113 78 0
-113 112 0
-78 -112 113 0
114 76 0
114 113 0
-76 -113 -114 0
-115 -10 0
-115 40 0
10 -40 115 0
25 -2 -116 0
-25 2 -116 0
25 2 116 0
-25 -2 116 0
-29 116 -117 0
29 -116 -117 0
-29 -116 117 0
29 116 117 0
117 -116 -118 0
-117 116 -118 0
117 116 118 0
-117 -116 118 0
29 -100 -119 0
-29 100 -119 0
29 100 119 0
-29 -100 119 0
118 119 -120 0
-118 -119 -120 0
118 -119 120 0
-118 119 120 0
115 -120 -121 0
-115 120 -121 0
115 120 121 0
-115 -120 121 0
-122 98 0
-122 18 0
-98 -18 122 0
-123 17 0
-123 31 0
-17 -31 123 0
-122 -123 -124 0
122 123 -124 0
-122 123 124 0
122 -123 124 0
125 -107 0
125 82 0
107 -82 -125 0
-124 125 -126 0
124 -125 -126 0
-124 -125 126 0
124 125 126 0
-127 121 0
-127 126 0
-121 -126 127 0
114 127 -128 0
-114 -127 -128 0
114 -127 128 0
-114 127 128 0
-81 -53 98 0
-22 63 80 121 -118 128 0
121 -39 126 32 0
126 12 0
-96 67 39 93 81 0
122 -50 60 29 0
-84 47 0
44 56 0
-86 121 87 0
-63 -56 -76 0
-28 -61 79 0
-59 -64 13 -87 -72 45 0
113 -108 -30 -58 0
-67 122 119 0
51 59 80 22 121 0
76 -85 79 -113 122 -40 0
-106 35 0
-77 56 -71 16 5 0
-20 -69 105 0
-107 -127 -88 -67 116 0
-126 47 12 0
26 -89 14 8 5 95 0
64 68 76 -124 -34 38 0
-75 -12 -86 0
-17 -59 0
121 -33 93 0
-29 -49 0
-25 103 108 49 -125 0
-27 -49 -35 41 -67 0
124 40 99 0
128 -14 0
-9 108 -26 -4 -78 -34 0
-8 30 14 -128 -84 0
117 -111 39 71 0
-65 -108 -97 0
97 80 77 76 -108 0
106 -108 0
89 -112 96 -46 0
-73 -32 0
90 -44 4 77 0
98 83 9 -53 0
122 -67 0
19 46 99 -33 -128 0
-37 -31 -113 -116 -47 0
-110 18 90 -57 63 -67 0
104 -50 0
-19 -124 31 -48 0
-80 107 -127 0
-50 63 119 -61 29 105 0
-122 -46 -17 128 0
36 -34 12 3 0
14 124 47 108 0
84 -95 -87 -33 0
83 116 -114 6 -78 0
-32 116 97 0
-17 23 0
-68 -126 -46 26 -58 -116 0
9 -10 0
68 -126 0
89 -33 -47 -16 0
-54 26 -117 39 0
-8 68 61 71 30 -35 0
-57 -25 118 59 0
100 -117 7 0
-58 5 -79 119 0
126 -15 60 -90 18 -8 0
-38 -43 -122 -36 0
67 -46 -20 29 -58 0
-60 92 -27 -85 43 110 0
-107 -111 -49 110 0
112 -89 0
83 -39 128 82 0
72 76 71 115 0
-88 -21 54 -110 0
51 111 -121 0
-106 -35 13 14 -104 0
128 0
